NAME: S051D3_20
COMMENT: 971.46
VEHICLE: 15
TIME: 61.8055
DIMENSION: 51
CAPACITY: 160
DELIVERY_SECTION
0 0 0
1 1 16
2 1 1.6
3 1 1.6
4 1 0.8
5 2 16
6 2 8
7 2 1.6
8 2 1.4
9 3 16
10 3 8
11 3 1.6
12 3 1.6
13 3 1.6
14 3 1.2
15 4 32
16 4 32
17 4 1.6
18 4 1.6
19 4 1.6
20 4 1.6
21 4 0.6
22 5 16
23 5 1.6
24 5 1.6
25 5 0.8
26 6 16
27 6 8
28 6 1.6
29 6 1.6
30 6 1.6
31 6 1.6
32 6 0.6
33 7 16
34 7 8
35 7 1.6
36 7 1.6
37 7 1.6
38 7 1.6
39 7 0.6
40 8 32
41 8 16
42 8 1.6
43 8 1.4
44 9 16
45 9 1.6
46 9 1.6
47 9 0.8
48 10 32
49 10 16
50 10 8
51 11 16
52 11 8
53 11 1.6
54 11 1.6
55 11 1.6
56 11 1.6
57 11 0.6
58 12 16
59 12 8
60 12 1
61 13 16
62 13 1.6
63 13 1.6
64 13 0.8
65 14 32
66 14 32
67 14 8
68 14 1.6
69 14 0.4
70 15 16
71 15 8
72 15 1.6
73 15 1.6
74 15 1.6
75 15 0.2
76 16 32
77 17 16
78 17 1.6
79 17 1.6
80 17 0.8
81 18 32
82 18 32
83 18 8
84 18 1.6
85 18 1.6
86 18 1.6
87 18 1.6
88 18 0.6
89 19 16
90 19 8
91 19 1
92 20 32
93 20 16
94 20 1.6
95 20 1.6
96 20 1.6
97 20 1.2
98 21 16
99 21 1.6
100 21 1.6
101 21 1.6
102 21 0.2
103 22 32
104 22 32
105 22 8
106 23 16
107 23 1.6
108 23 0.4
109 24 32
110 24 32
111 24 1.6
112 24 1.6
113 24 1.6
114 24 1.2
115 25 16
116 25 1.6
117 25 1.6
118 25 1.6
119 25 1.6
120 25 0.6
121 26 32
122 26 16
123 26 1.6
124 26 1.6
125 26 0.8
126 27 16
127 27 1.6
128 27 1.6
129 27 1.6
130 27 0.2
131 28 32
132 28 32
133 28 8
134 28 1.6
135 28 1.6
136 28 1.6
137 28 1.2
138 29 16
139 29 8
140 29 1
141 30 16
142 30 8
143 30 1.6
144 30 0.4
145 31 32
146 32 32
147 32 32
148 32 8
149 32 1.6
150 32 1.6
151 32 1.6
152 32 1.6
153 32 0.6
154 33 16
155 33 8
156 33 1.6
157 33 1.6
158 33 0.8
159 34 32
160 34 1
161 35 32
162 35 8
163 35 1.6
164 35 1.4
165 36 32
166 36 32
167 36 8
168 36 1.6
169 36 1.6
170 36 0.8
171 37 32
172 38 32
173 38 16
174 38 8
175 38 1
176 39 32
177 39 16
178 39 8
179 40 32
180 40 32
181 40 1.6
182 40 1.6
183 40 1.6
184 40 0.2
185 41 32
186 41 1.6
187 41 1.6
188 41 1.6
189 41 0.2
190 42 32
191 42 32
192 42 8
193 43 32
194 43 32
195 43 1.6
196 43 1.6
197 43 0.8
198 44 32
199 44 16
200 44 8
201 44 1.6
202 44 1.6
203 44 1.6
204 44 0.2
205 45 32
206 45 8
207 45 1.6
208 45 1.4
209 46 32
210 46 32
211 46 8
212 46 1.6
213 46 1.6
214 46 1.6
215 46 1.6
216 46 0.6
217 47 32
218 47 32
219 47 8
220 47 1.6
221 47 1.6
222 47 0.8
223 48 32
224 48 16
225 48 1.6
226 48 1.6
227 48 1.6
228 48 0.2
229 49 32
230 49 16
231 49 1.6
232 49 1.4
233 50 32
234 50 32
235 50 8
236 50 1.6
237 50 1.6
238 50 1.6
239 50 1.2
PICKUP_SECTION
NODE_SECTION
30 40

37 52

49 49

52 64

20 26

40 30

21 47

17 63

31 62

52 33

51 21

42 41

31 32

 5 25

12 42

36 16

52 41

27 23

17 33

13 13

57 58

62 42

42 57

16 57
 
8 52

 7 38

27 68

30 48

43 67

58 48

58 27

37 69

38 46

46 10

61 33

62 63

63 69

32 22

45 35

59 15

 5  6

10 17

21 10

 5 64

30 15

39 10

32 39

25 32

25 55

48 28

56 37
DISTANCE_SECTION
DEPOT_SECTION
0
EOF